tsp_instances/TSP50/instance38.tsp
NODE_COORD_SECTION
0 140 161
1 154 47
2 120 92
3 88 112
4 126 156
5 165 85
6 56 197
7 86 142
8 54 148
9 5 182
10 144 172
11 47 82
12 93 80
13 40 27
14 120 85
15 20 40
16 192 178
17 44 60
18 86 181
19 133 13
20 174 89
21 119 163
22 13 182
23 30 53
24 47 129
25 115 129
26 197 122
27 71 28
28 187 14
29 173 107
30 140 103
31 44 153
32 118 4
33 126 108
34 41 124
35 135 114
36 123 189
37 168 149
38 122 58
39 69 74
40 156 110
41 184 40
42 30 53
43 76 168
44 26 192
45 168 199
46 16 161
47 64 26
48 32 175
49 199 71
