tsp_instances/TSP50/instance38.opt.tour
TOUR_SECTION
1
5
22
37
19
44
7
45
23
10
47
49
32
9
25
35
8
26
4
13
40
12
18
43
24
16
14
48
28
33
20
29
42
50
21
6
2
39
15
3
34
36
31
41
30
27
38
17
46
11
-1